
Gurobi 11.0.0 (win64) logging started Mon Jul 28 22:29:21 2025

Set parameter LogFile to value "C:\Users\mahu123a\Documents\3l-cvrp-heuristic\data/output/3l-cvrp/all-constraints-heuristic-basic/2025-07-28_22-29-21/BinPackLowerBound.log"

Gurobi 11.0.0 (win64) logging started Mon Jul 28 22:29:22 2025

Set parameter LogFile to value "C:\Users\mahu123a\Documents\3l-cvrp-heuristic\data/output/3l-cvrp/all-constraints-heuristic-basic/2025-07-28_22-29-21/BinPackLowerBound.log"
